! B3LYP/G Grid7 RIJCOSX def2/J GridX9 Printbasis   TightOpt  Freq  
*xyz  0 1
 F      0.00000000     0.00000000     0.00000000
 H      0.92614000     0.00000000     0.00000000
 F      1.72307000     0.00000000    -1.82971000
 H      0.79706000    -0.00010000    -1.83479000
*
%MaxCore  16000
%scf
   MaxIter 500 
   Convergence  VeryTight
end
%pal nprocs  1 
end
%method
  IntAcc 7.0
end
%geom
  Calc_Hess true
  Recalc_Hess 5 
end
%freq  Temp  273.15, 298.15
end
%basis 
   NewGTO   H
   S  3
       1              18.73113696               0.03349460
       2               2.82539437               0.23472695
       3               0.64012169               0.81375733
   S  1
       1               0.16127776               1.00000000
   P  1
       1               1.10000000               1.00000000
   end
   NewGTO   F
   S  6
       1            7001.71309000               0.00181962
       2            1051.36609000               0.01391608
       3             239.28569000               0.06840532
       4              67.39744530               0.23318576
       5              21.51995730               0.47126744
       6               7.40310130               0.35661855
   S  3
       1              20.84795280              -0.10850698
       2               4.80830834              -0.14645166
       3               1.34406986               1.12868858
   P  3
       1              20.84795280               0.07162872
       2               4.80830834               0.34591210
       3               1.34406986               0.72246996
   S  1
       1               0.35815139               1.00000000
   P  1
       1               0.35815139               1.00000000
   D  1
       1               1.60000000               1.00000000
   D  1
       1               0.40000000               1.00000000
   F  1
       1               1.85000000               1.00000000
   end
end
! DLPNO-CCSD(T) RI-MP2 def2-SVP/C RIJK def2/JK TightPNO Printbasis   
*xyz  0 1
 F     -1.25265204    -0.01751782    -0.00000002
 H     -0.62348941     0.66345725     0.00000046
 F      1.25265166     0.01751815    -0.00000002
 H      0.62349647    -0.66346351     0.00000046
*
%MaxCore  16000
%scf
   MaxIter 500 
   Convergence  VeryTight
end
%mdci
  UseFullLMP2Guess true
  TcutDOPre =  0.03
end
%pal nprocs  1 
end
%method
  IntAcc 7.0
  NewNCore H  0  end
  NewNCore F  2  end
end
%basis 
   NewGTO   H
   S  3
       1              18.73113696               0.03349460
       2               2.82539437               0.23472695
       3               0.64012169               0.81375733
   S  1
       1               0.16127776               1.00000000
   end
   NewGTO   F
   S  6
       1            7001.71309000               0.00181962
       2            1051.36609000               0.01391608
       3             239.28569000               0.06840532
       4              67.39744530               0.23318576
       5              21.51995730               0.47126744
       6               7.40310130               0.35661855
   S  3
       1              20.84795280              -0.10850698
       2               4.80830834              -0.14645166
       3               1.34406986               1.12868858
   P  3
       1              20.84795280               0.07162872
       2               4.80830834               0.34591210
       3               1.34406986               0.72246996
   S  1
       1               0.35815139               1.00000000
   P  1
       1               0.35815139               1.00000000
   D  1
       1               0.80000000               1.00000000
   end
end
! RI-MP2 def2-TZVP/C RIJK def2/JK Printbasis   
*xyz  0 1
 F     -1.25265204    -0.01751782    -0.00000002
 H     -0.62348941     0.66345725     0.00000046
 F      1.25265166     0.01751815    -0.00000002
 H      0.62349647    -0.66346351     0.00000046
*
%MaxCore  16000
%scf
   MaxIter 500 
   Convergence  VeryTight
end
%pal nprocs  1 
end
%method
  IntAcc 7.0
  NewNCore H  0  end
  NewNCore F  2  end
end
%basis 
   NewGTO   H
   S  3
       1              33.86500000               0.02549381
       2               5.09479000               0.19037311
       3               1.15879000               0.85216149
   S  1
       1               0.32584000               1.00000000
   S  1
       1               0.10274100               1.00000000
   S  1
       1               0.03600000               1.00000000
   P  1
       1               1.50000000               1.00000000
   P  1
       1               0.37500000               1.00000000
   end
   NewGTO   F
   S  6
       1           11427.10000000               0.00180093
       2            1722.35000000               0.01374190
       3             395.74600000               0.06813341
       4             115.13900000               0.23332502
       5              33.60260000               0.58908605
       6               4.91901000               0.29950503
   S  3
       1              55.44410000               0.11453602
       2              12.63230000               0.92051212
       3               3.71756000              -0.00337804
   P  3
       1              55.44410000               0.03546089
       2              12.63230000               0.23745092
       3               3.71756000               0.82045771
   S  1
       1               1.16545000               1.00000000
   P  1
       1               1.16545000               1.00000000
   S  1
       1               0.32189200               1.00000000
   P  1
       1               0.32189200               1.00000000
   S  1
       1               0.10760000               1.00000000
   P  1
       1               0.10760000               1.00000000
   D  1
       1               7.00000000               1.00000000
   D  1
       1               1.75000000               1.00000000
   D  1
       1               0.43750000               1.00000000
   F  1
       1               1.85000000               1.00000000
   end
end
! HF RIJK def2/JK Printbasis   
*xyz  0 1
 F     -1.25265204    -0.01751782    -0.00000002
 H     -0.62348941     0.66345725     0.00000046
 F      1.25265166     0.01751815    -0.00000002
 H      0.62349647    -0.66346351     0.00000046
*
%MaxCore  16000
%scf
   MaxIter 500 
   Convergence  VeryTight
end
%pal nprocs  1 
end
%method
  IntAcc 7.0
end
%basis 
   NewGTO   H
   S  3
       1              33.87000000               0.02549486
       2               5.09500000               0.19036277
       3               1.15900000               0.85216202
   S  1
       1               0.32580000               1.00000000
   S  1
       1               0.10270000               1.00000000
   P  1
       1               0.72700000               1.00000000
   end
   NewGTO   F
   S  7
       1           19500.00000000               0.00051900
       2            2923.00000000               0.00401578
       3             664.50000000               0.02067746
       4             187.50000000               0.08086902
       5              60.62000000               0.23580755
       6              21.42000000               0.44258231
       7               7.95000000               0.35696287
   S  6
       1             664.50000000              -0.00003736
       2             187.50000000              -0.00127747
       3              60.62000000              -0.01082201
       4              21.42000000              -0.07004821
       5               7.95000000              -0.16974661
       6               0.88150000               1.07302661
   S  1
       1               2.25700000               1.00000000
   S  1
       1               0.30410000               1.00000000
   S  1
       1               0.09158000               1.00000000
   P  3
       1              43.88000000               0.04190462
       2               9.92600000               0.26269784
       3               2.93000000               0.79775937
   P  1
       1               0.91320000               1.00000000
   P  1
       1               0.26720000               1.00000000
   P  1
       1               0.07361000               1.00000000
   D  1
       1               3.10700000               1.00000000
   D  1
       1               0.85500000               1.00000000
   F  1
       1               1.91700000               1.00000000
   end
end
! HF RIJK def2/JK Printbasis   
*xyz  0 1
 F     -1.25265204    -0.01751782    -0.00000002
 H     -0.62348941     0.66345725     0.00000046
 F      1.25265166     0.01751815    -0.00000002
 H      0.62349647    -0.66346351     0.00000046
*
%MaxCore  16000
%scf
   MaxIter 500 
   Convergence  VeryTight
end
%pal nprocs  1 
end
%method
  IntAcc 7.0
end
%basis 
   NewGTO   H
   S  3
       1              82.64000000               0.02295076
       2              12.41000000               0.17554012
       3               2.82400000               0.86470355
   S  1
       1               0.79770000               1.00000000
   S  1
       1               0.25810000               1.00000000
   S  1
       1               0.08989000               1.00000000
   P  1
       1               1.40700000               1.00000000
   P  1
       1               0.38800000               1.00000000
   D  1
       1               1.05700000               1.00000000
   end
   NewGTO   F
   S  8
       1           74530.00000000               0.00028736
       2           11170.00000000               0.00221204
       3            2543.00000000               0.01171492
       4             721.00000000               0.04706365
       5             235.90000000               0.15884293
       6              85.60000000               0.38853661
       7              33.55000000               0.65703249
       8               5.91500000              -0.51187883
   S  7
       1           11170.00000000              -0.00001141
       2             721.00000000              -0.00051150
       3             235.90000000              -0.00237073
       4              85.60000000              -0.02583562
       5              33.55000000              -0.11010233
       6              13.93000000              -0.47318545
       7               5.91500000              -0.45491225
   S  1
       1               1.84300000               1.00000000
   S  1
       1               0.71240000               1.00000000
   S  1
       1               0.26370000               1.00000000
   S  1
       1               0.08594000               1.00000000
   P  3
       1              80.39000000               0.03138419
       2              18.63000000               0.21857676
       3               5.69400000               0.83325590
   P  1
       1               1.95300000               1.00000000
   P  1
       1               0.67020000               1.00000000
   P  1
       1               0.21660000               1.00000000
   P  1
       1               0.06568000               1.00000000
   D  1
       1               5.01400000               1.00000000
   D  1
       1               1.72500000               1.00000000
   D  1
       1               0.58600000               1.00000000
   F  1
       1               3.56200000               1.00000000
   F  1
       1               1.14800000               1.00000000
   G  1
       1               2.37600000               1.00000000
   end
end
! B3LYP/G Grid7 RIJCOSX def2/J GridX9 Printbasis   TightOpt  Freq  
*xyz  0 1
 F      0.00000000     0.00000000     0.00000000
 H      0.93389000     0.00000000     0.00000000
*
%MaxCore  16000
%scf
   MaxIter 500 
   Convergence  VeryTight
end
%pal nprocs  1 
end
%method
  IntAcc 7.0
end
%geom
  Calc_Hess true
  Recalc_Hess 5 
end
%freq  Temp  273.15, 298.15
end
%basis 
   NewGTO   H
   S  3
       1              18.73113696               0.03349460
       2               2.82539437               0.23472695
       3               0.64012169               0.81375733
   S  1
       1               0.16127776               1.00000000
   P  1
       1               1.10000000               1.00000000
   end
   NewGTO   F
   S  6
       1            7001.71309000               0.00181962
       2            1051.36609000               0.01391608
       3             239.28569000               0.06840532
       4              67.39744530               0.23318576
       5              21.51995730               0.47126744
       6               7.40310130               0.35661855
   S  3
       1              20.84795280              -0.10850698
       2               4.80830834              -0.14645166
       3               1.34406986               1.12868858
   P  3
       1              20.84795280               0.07162872
       2               4.80830834               0.34591210
       3               1.34406986               0.72246996
   S  1
       1               0.35815139               1.00000000
   P  1
       1               0.35815139               1.00000000
   D  1
       1               1.60000000               1.00000000
   D  1
       1               0.40000000               1.00000000
   F  1
       1               1.85000000               1.00000000
   end
end
! DLPNO-CCSD(T) RI-MP2 def2-SVP/C RIJK def2/JK TightPNO Printbasis   
*xyz  0 1
 F      0.00698135     0.00000000     0.00000000
 H      0.92690865     0.00000000     0.00000000
*
%MaxCore  16000
%scf
   MaxIter 500 
   Convergence  VeryTight
end
%mdci
  UseFullLMP2Guess true
  TcutDOPre =  0.03
end
%pal nprocs  1 
end
%method
  IntAcc 7.0
  NewNCore H  0  end
  NewNCore F  2  end
end
%basis 
   NewGTO   H
   S  3
       1              18.73113696               0.03349460
       2               2.82539437               0.23472695
       3               0.64012169               0.81375733
   S  1
       1               0.16127776               1.00000000
   end
   NewGTO   F
   S  6
       1            7001.71309000               0.00181962
       2            1051.36609000               0.01391608
       3             239.28569000               0.06840532
       4              67.39744530               0.23318576
       5              21.51995730               0.47126744
       6               7.40310130               0.35661855
   S  3
       1              20.84795280              -0.10850698
       2               4.80830834              -0.14645166
       3               1.34406986               1.12868858
   P  3
       1              20.84795280               0.07162872
       2               4.80830834               0.34591210
       3               1.34406986               0.72246996
   S  1
       1               0.35815139               1.00000000
   P  1
       1               0.35815139               1.00000000
   D  1
       1               0.80000000               1.00000000
   end
end
! RI-MP2 def2-TZVP/C RIJK def2/JK Printbasis   
*xyz  0 1
 F      0.00698135     0.00000000     0.00000000
 H      0.92690865     0.00000000     0.00000000
*
%MaxCore  16000
%scf
   MaxIter 500 
   Convergence  VeryTight
end
%pal nprocs  1 
end
%method
  IntAcc 7.0
  NewNCore H  0  end
  NewNCore F  2  end
end
%basis 
   NewGTO   H
   S  3
       1              33.86500000               0.02549381
       2               5.09479000               0.19037311
       3               1.15879000               0.85216149
   S  1
       1               0.32584000               1.00000000
   S  1
       1               0.10274100               1.00000000
   S  1
       1               0.03600000               1.00000000
   P  1
       1               1.50000000               1.00000000
   P  1
       1               0.37500000               1.00000000
   end
   NewGTO   F
   S  6
       1           11427.10000000               0.00180093
       2            1722.35000000               0.01374190
       3             395.74600000               0.06813341
       4             115.13900000               0.23332502
       5              33.60260000               0.58908605
       6               4.91901000               0.29950503
   S  3
       1              55.44410000               0.11453602
       2              12.63230000               0.92051212
       3               3.71756000              -0.00337804
   P  3
       1              55.44410000               0.03546089
       2              12.63230000               0.23745092
       3               3.71756000               0.82045771
   S  1
       1               1.16545000               1.00000000
   P  1
       1               1.16545000               1.00000000
   S  1
       1               0.32189200               1.00000000
   P  1
       1               0.32189200               1.00000000
   S  1
       1               0.10760000               1.00000000
   P  1
       1               0.10760000               1.00000000
   D  1
       1               7.00000000               1.00000000
   D  1
       1               1.75000000               1.00000000
   D  1
       1               0.43750000               1.00000000
   F  1
       1               1.85000000               1.00000000
   end
end
! HF RIJK def2/JK Printbasis   
*xyz  0 1
 F      0.00698135     0.00000000     0.00000000
 H      0.92690865     0.00000000     0.00000000
*
%MaxCore  16000
%scf
   MaxIter 500 
   Convergence  VeryTight
end
%pal nprocs  1 
end
%method
  IntAcc 7.0
end
%basis 
   NewGTO   H
   S  3
       1              33.87000000               0.02549486
       2               5.09500000               0.19036277
       3               1.15900000               0.85216202
   S  1
       1               0.32580000               1.00000000
   S  1
       1               0.10270000               1.00000000
   P  1
       1               0.72700000               1.00000000
   end
   NewGTO   F
   S  7
       1           19500.00000000               0.00051900
       2            2923.00000000               0.00401578
       3             664.50000000               0.02067746
       4             187.50000000               0.08086902
       5              60.62000000               0.23580755
       6              21.42000000               0.44258231
       7               7.95000000               0.35696287
   S  6
       1             664.50000000              -0.00003736
       2             187.50000000              -0.00127747
       3              60.62000000              -0.01082201
       4              21.42000000              -0.07004821
       5               7.95000000              -0.16974661
       6               0.88150000               1.07302661
   S  1
       1               2.25700000               1.00000000
   S  1
       1               0.30410000               1.00000000
   S  1
       1               0.09158000               1.00000000
   P  3
       1              43.88000000               0.04190462
       2               9.92600000               0.26269784
       3               2.93000000               0.79775937
   P  1
       1               0.91320000               1.00000000
   P  1
       1               0.26720000               1.00000000
   P  1
       1               0.07361000               1.00000000
   D  1
       1               3.10700000               1.00000000
   D  1
       1               0.85500000               1.00000000
   F  1
       1               1.91700000               1.00000000
   end
end
! HF RIJK def2/JK Printbasis   
*xyz  0 1
 F      0.00698135     0.00000000     0.00000000
 H      0.92690865     0.00000000     0.00000000
*
%MaxCore  16000
%scf
   MaxIter 500 
   Convergence  VeryTight
end
%pal nprocs  1 
end
%method
  IntAcc 7.0
end
%basis 
   NewGTO   H
   S  3
       1              82.64000000               0.02295076
       2              12.41000000               0.17554012
       3               2.82400000               0.86470355
   S  1
       1               0.79770000               1.00000000
   S  1
       1               0.25810000               1.00000000
   S  1
       1               0.08989000               1.00000000
   P  1
       1               1.40700000               1.00000000
   P  1
       1               0.38800000               1.00000000
   D  1
       1               1.05700000               1.00000000
   end
   NewGTO   F
   S  8
       1           74530.00000000               0.00028736
       2           11170.00000000               0.00221204
       3            2543.00000000               0.01171492
       4             721.00000000               0.04706365
       5             235.90000000               0.15884293
       6              85.60000000               0.38853661
       7              33.55000000               0.65703249
       8               5.91500000              -0.51187883
   S  7
       1           11170.00000000              -0.00001141
       2             721.00000000              -0.00051150
       3             235.90000000              -0.00237073
       4              85.60000000              -0.02583562
       5              33.55000000              -0.11010233
       6              13.93000000              -0.47318545
       7               5.91500000              -0.45491225
   S  1
       1               1.84300000               1.00000000
   S  1
       1               0.71240000               1.00000000
   S  1
       1               0.26370000               1.00000000
   S  1
       1               0.08594000               1.00000000
   P  3
       1              80.39000000               0.03138419
       2              18.63000000               0.21857676
       3               5.69400000               0.83325590
   P  1
       1               1.95300000               1.00000000
   P  1
       1               0.67020000               1.00000000
   P  1
       1               0.21660000               1.00000000
   P  1
       1               0.06568000               1.00000000
   D  1
       1               5.01400000               1.00000000
   D  1
       1               1.72500000               1.00000000
   D  1
       1               0.58600000               1.00000000
   F  1
       1               3.56200000               1.00000000
   F  1
       1               1.14800000               1.00000000
   G  1
       1               2.37600000               1.00000000
   end
end
! B3LYP/G Grid7 RIJCOSX def2/J GridX9 Printbasis   TightOpt  Freq  
*xyz  0 1
 F      0.00000000     0.00000000     0.00000000
 H      0.92614000     0.00000000     0.00000000
 F      1.72307000     0.00000000    -1.82971000
 H      0.79706000    -0.00010000    -1.83479000
*
%MaxCore  8000
%scf
   MaxIter 500 
   Convergence  VeryTight
end
%pal nprocs  1 
end
%method
  IntAcc 7.0
end
%geom
  Calc_Hess true
  Recalc_Hess 5 
end
%freq  Temp  273.15, 298.15
end
%basis 
   NewGTO   H
   S  3
       1              18.73113696               0.03349460
       2               2.82539437               0.23472695
       3               0.64012169               0.81375733
   S  1
       1               0.16127776               1.00000000
   P  1
       1               1.10000000               1.00000000
   end
   NewGTO   F
   S  6
       1            7001.71309000               0.00181962
       2            1051.36609000               0.01391608
       3             239.28569000               0.06840532
       4              67.39744530               0.23318576
       5              21.51995730               0.47126744
       6               7.40310130               0.35661855
   S  3
       1              20.84795280              -0.10850698
       2               4.80830834              -0.14645166
       3               1.34406986               1.12868858
   P  3
       1              20.84795280               0.07162872
       2               4.80830834               0.34591210
       3               1.34406986               0.72246996
   S  1
       1               0.35815139               1.00000000
   P  1
       1               0.35815139               1.00000000
   D  1
       1               1.60000000               1.00000000
   D  1
       1               0.40000000               1.00000000
   F  1
       1               1.85000000               1.00000000
   end
end
! DLPNO-CCSD(T) RI-MP2 def2-SVP/C RIJK def2/JK TightPNO Printbasis   
*xyz  0 1
 F     -1.25265204    -0.01751782    -0.00000002
 H     -0.62348949     0.66345731     0.00000044
 F      1.25265167     0.01751815    -0.00000002
 H      0.62349644    -0.66346346     0.00000044
*
%MaxCore  8000
%scf
   MaxIter 500 
   Convergence  VeryTight
end
%mdci
  UseFullLMP2Guess true
  TcutDOPre =  0.03
end
%pal nprocs  1 
end
%method
  IntAcc 7.0
  NewNCore H  0  end
  NewNCore F  2  end
end
%basis 
   NewGTO   H
   S  3
       1              18.73113696               0.03349460
       2               2.82539437               0.23472695
       3               0.64012169               0.81375733
   S  1
       1               0.16127776               1.00000000
   end
   NewGTO   F
   S  6
       1            7001.71309000               0.00181962
       2            1051.36609000               0.01391608
       3             239.28569000               0.06840532
       4              67.39744530               0.23318576
       5              21.51995730               0.47126744
       6               7.40310130               0.35661855
   S  3
       1              20.84795280              -0.10850698
       2               4.80830834              -0.14645166
       3               1.34406986               1.12868858
   P  3
       1              20.84795280               0.07162872
       2               4.80830834               0.34591210
       3               1.34406986               0.72246996
   S  1
       1               0.35815139               1.00000000
   P  1
       1               0.35815139               1.00000000
   D  1
       1               0.80000000               1.00000000
   end
end
! RI-MP2 def2-TZVP/C RIJK def2/JK Printbasis   
*xyz  0 1
 F     -1.25265204    -0.01751782    -0.00000002
 H     -0.62348949     0.66345731     0.00000044
 F      1.25265167     0.01751815    -0.00000002
 H      0.62349644    -0.66346346     0.00000044
*
%MaxCore  8000
%scf
   MaxIter 500 
   Convergence  VeryTight
end
%pal nprocs  1 
end
%method
  IntAcc 7.0
  NewNCore H  0  end
  NewNCore F  2  end
end
%basis 
   NewGTO   H
   S  3
       1              33.86500000               0.02549381
       2               5.09479000               0.19037311
       3               1.15879000               0.85216149
   S  1
       1               0.32584000               1.00000000
   S  1
       1               0.10274100               1.00000000
   S  1
       1               0.03600000               1.00000000
   P  1
       1               1.50000000               1.00000000
   P  1
       1               0.37500000               1.00000000
   end
   NewGTO   F
   S  6
       1           11427.10000000               0.00180093
       2            1722.35000000               0.01374190
       3             395.74600000               0.06813341
       4             115.13900000               0.23332502
       5              33.60260000               0.58908605
       6               4.91901000               0.29950503
   S  3
       1              55.44410000               0.11453602
       2              12.63230000               0.92051212
       3               3.71756000              -0.00337804
   P  3
       1              55.44410000               0.03546089
       2              12.63230000               0.23745092
       3               3.71756000               0.82045771
   S  1
       1               1.16545000               1.00000000
   P  1
       1               1.16545000               1.00000000
   S  1
       1               0.32189200               1.00000000
   P  1
       1               0.32189200               1.00000000
   S  1
       1               0.10760000               1.00000000
   P  1
       1               0.10760000               1.00000000
   D  1
       1               7.00000000               1.00000000
   D  1
       1               1.75000000               1.00000000
   D  1
       1               0.43750000               1.00000000
   F  1
       1               1.85000000               1.00000000
   end
end
! HF RIJK def2/JK Printbasis   
*xyz  0 1
 F     -1.25265204    -0.01751782    -0.00000002
 H     -0.62348949     0.66345731     0.00000044
 F      1.25265167     0.01751815    -0.00000002
 H      0.62349644    -0.66346346     0.00000044
*
%MaxCore  8000
%scf
   MaxIter 500 
   Convergence  VeryTight
end
%pal nprocs  1 
end
%method
  IntAcc 7.0
end
%basis 
   NewGTO   H
   S  3
       1              33.87000000               0.02549486
       2               5.09500000               0.19036277
       3               1.15900000               0.85216202
   S  1
       1               0.32580000               1.00000000
   S  1
       1               0.10270000               1.00000000
   P  1
       1               0.72700000               1.00000000
   end
   NewGTO   F
   S  7
       1           19500.00000000               0.00051900
       2            2923.00000000               0.00401578
       3             664.50000000               0.02067746
       4             187.50000000               0.08086902
       5              60.62000000               0.23580755
       6              21.42000000               0.44258231
       7               7.95000000               0.35696287
   S  6
       1             664.50000000              -0.00003736
       2             187.50000000              -0.00127747
       3              60.62000000              -0.01082201
       4              21.42000000              -0.07004821
       5               7.95000000              -0.16974661
       6               0.88150000               1.07302661
   S  1
       1               2.25700000               1.00000000
   S  1