! B3LYP/G Grid5   TightOpt  Freq  
*xyz  0 1
 C      0.00000000     0.00000000     0.00000000
 H      1.09336000     0.00000000     0.00000000
 H     -0.36445000     0.00000000    -1.03083000
 H     -0.36445000    -0.97188000     0.34361000
 H     -0.36445000     0.97188000     0.34361000
*
%MaxCore  16000
%scf
   MaxIter 500 
   Convergence  VeryTight
end
%pal nprocs  1 
end
%method
  IntAcc 7.0
end
%geom
  Calc_Hess true
  Recalc_Hess 5 
end
%freq  Temp  273.15, 298.15
end
%basis 
   NewGTO   C
   S  6
       1            3047.52488000               0.00183474
       2             457.36951800               0.01403732
       3             103.94868500               0.06884262
       4              29.21015530               0.23218444
       5               9.28666296               0.46794135
       6               3.16392696               0.36231199
   S  3
       1               7.86827235              -0.11933242
       2               1.88128854              -0.16085415
       3               0.54424926               1.14345644
   P  3
       1               7.86827235               0.06899907
       2               1.88128854               0.31642396
       3               0.54424926               0.74430829
   S  1
       1               0.16871448               1.00000000
   P  1
       1               0.16871448               1.00000000
   D  1
       1               1.60000000               1.00000000
   D  1
       1               0.40000000               1.00000000
   F  1
       1               0.80000000               1.00000000
   end
   NewGTO   H
   S  3
       1              18.73113696               0.03349460
       2               2.82539437               0.23472695
       3               0.64012169               0.81375733
   S  1
       1               0.16127776               1.00000000
   P  1
       1               1.10000000               1.00000000
   end
end
! CCSD(T)   
*xyz  0 1
 C      0.00000022    -0.00000004     0.00000000
 H     -0.13653323    -1.08336976     0.00208574
 H      1.06692447     0.23239758    -0.00163436
 H     -0.46621681     0.42389837    -0.89178726
 H     -0.46417710     0.42707426     0.89133587
*
%MaxCore  16000
%scf
   MaxIter 500 
   Convergence  VeryTight
end
%pal nprocs  1 
end
%method
  IntAcc 7.0
  NewNCore C  2  end
  NewNCore H  0  end
end
%basis 
   NewGTO   C
   S  6
       1            3047.52488000               0.00183474
       2             457.36951800               0.01403732
       3             103.94868500               0.06884262
       4              29.21015530               0.23218444
       5               9.28666296               0.46794135
       6               3.16392696               0.36231199
   S  3
       1               7.86827235              -0.11933242
       2               1.88128854              -0.16085415
       3               0.54424926               1.14345644
   P  3
       1               7.86827235               0.06899907
       2               1.88128854               0.31642396
       3               0.54424926               0.74430829
   S  1
       1               0.16871448               1.00000000
   P  1
       1               0.16871448               1.00000000
   D  1
       1               0.80000000               1.00000000
   end
   NewGTO   H
   S  3
       1              18.73113696               0.03349460
       2               2.82539437               0.23472695
       3               0.64012169               0.81375733
   S  1
       1               0.16127776               1.00000000
   end
end
! MP2   
*xyz  0 1
 C      0.00000022    -0.00000004     0.00000000
 H     -0.13653323    -1.08336976     0.00208574
 H      1.06692447     0.23239758    -0.00163436
 H     -0.46621681     0.42389837    -0.89178726
 H     -0.46417710     0.42707426     0.89133587
*
%MaxCore  16000
%scf
   MaxIter 500 
   Convergence  VeryTight
end
%pal nprocs  1 
end
%method
  IntAcc 7.0
  NewNCore C  2  end
  NewNCore H  0  end
end
%basis 
   NewGTO   C
   S  6
       1            4563.24000000               0.00196665
       2             682.02400000               0.01523060
       3             154.97300000               0.07612691
       4              44.45530000               0.26080103
       5              13.02900000               0.61646208
       6               1.82773000               0.22100603
   S  3
       1              20.96420000               0.11466008
       2               4.80331000               0.91999965
       3               1.45933000              -0.00303068
   P  3
       1              20.96420000               0.04024869
       2               4.80331000               0.23759396
       3               1.45933000               0.81585385
   S  1
       1               0.48345600               1.00000000
   P  1
       1               0.48345600               1.00000000
   S  1
       1               0.14558500               1.00000000
   P  1
       1               0.14558500               1.00000000
   S  1
       1               0.04380000               1.00000000
   P  1
       1               0.04380000               1.00000000
   D  1
       1               2.50400000               1.00000000
   D  1
       1               0.62600000               1.00000000
   D  1
       1               0.15650000               1.00000000
   F  1
       1               0.80000000               1.00000000
   end
   NewGTO   H
   S  3
       1              33.86500000               0.02549381
       2               5.09479000               0.19037311
       3               1.15879000               0.85216149
   S  1
       1               0.32584000               1.00000000
   S  1
       1               0.10274100               1.00000000
   S  1
       1               0.03600000               1.00000000
   P  1
       1               1.50000000               1.00000000
   P  1
       1               0.37500000               1.00000000
   end
end
! HF   
*xyz  0 1
 C      0.00000022    -0.00000004     0.00000000
 H     -0.13653323    -1.08336976     0.00208574
 H      1.06692447     0.23239758    -0.00163436
 H     -0.46621681     0.42389837    -0.89178726
 H     -0.46417710     0.42707426     0.89133587
*
%MaxCore  16000
%scf
   MaxIter 500 
   Convergence  VeryTight
end
%pal nprocs  1 
end
%method
  IntAcc 7.0
end
%basis 
   NewGTO   C
   S  7
       1            8236.00000000               0.00054198
       2            1235.00000000               0.00419287
       3             280.80000000               0.02152216
       4              79.27000000               0.08353432
       5              25.59000000               0.23958285
       6               8.99700000               0.44285284
       7               3.31900000               0.35179956
   S  6
       1             280.80000000              -0.00005949
       2              79.27000000              -0.00114816
       3              25.59000000              -0.01001914
       4               8.99700000              -0.06121949
       5               3.31900000              -0.17326985
       6               0.36430000               1.07291519
   S  1
       1               0.90590000               1.00000000
   S  1
       1               0.12850000               1.00000000
   S  1
       1               0.04402000               1.00000000
   P  3
       1              18.71000000               0.03942639
       2               4.13300000               0.24408898
       3               1.20000000               0.81549201
   P  1
       1               0.38270000               1.00000000
   P  1
       1               0.12090000               1.00000000
   P  1
       1               0.03569000               1.00000000
   D  1
       1               1.09700000               1.00000000
   D  1
       1               0.31800000               1.00000000
   F  1
       1               0.76100000               1.00000000
   end
   NewGTO   H
   S  3
       1              33.87000000               0.02549486
       2               5.09500000               0.19036277
       3               1.15900000               0.85216202
   S  1
       1               0.32580000               1.00000000
   S  1
       1               0.10270000               1.00000000
   P  1
       1               0.72700000               1.00000000
   end
end
! HF   
*xyz  0 1
 C      0.00000022    -0.00000004     0.00000000
 H     -0.13653323    -1.08336976     0.00208574
 H      1.06692447     0.23239758    -0.00163436
 H     -0.46621681     0.42389837    -0.89178726
 H     -0.46417710     0.42707426     0.89133587
*
%MaxCore  16000
%scf
   MaxIter 500 
   Convergence  VeryTight
end
%pal nprocs  1 
end
%method
  IntAcc 7.0
end
%basis 
   NewGTO   C
   S  8
       1           33980.00000000               0.00014681
       2            5089.00000000               0.00111646
       3            1157.00000000               0.00589089
       4             326.60000000               0.02421726
       5             106.10000000               0.08317164
       6              38.11000000               0.22056848
       7              14.75000000               0.42873150
       8               6.03500000               0.36436142
   S  7
       1            5089.00000000              -0.00001002
       2             326.60000000              -0.00043659
       3             106.10000000              -0.00193231
       4              38.11000000              -0.02148395
       5              14.75000000              -0.09030917
       6               6.03500000              -0.41879151
       7               2.53000000              -0.53180191
   S  1
       1               0.73550000               1.00000000
   S  1
       1               0.29050000               1.00000000
   S  1
       1               0.11110000               1.00000000
   S  1
       1               0.04145000               1.00000000
   P  3
       1              34.51000000               0.03168786
       2               7.91500000               0.21289431
       3               2.36800000               0.83958675
   P  1
       1               0.81320000               1.00000000
   P  1
       1               0.28900000               1.00000000
   P  1
       1               0.10070000               1.00000000
   P  1
       1               0.03218000               1.00000000
   D  1
       1               1.84800000               1.00000000
   D  1
       1               0.64900000               1.00000000
   D  1
       1               0.22800000               1.00000000
   F  1
       1               1.41900000               1.00000000
   F  1
       1               0.48500000               1.00000000
   G  1
       1               1.01100000               1.00000000
   end
   NewGTO   H
   S  3
       1              82.64000000               0.02295076
       2              12.41000000               0.17554012
       3               2.82400000               0.86470355
   S  1
       1               0.79770000               1.00000000
   S  1
       1               0.25810000               1.00000000
   S  1
       1               0.08989000               1.00000000
   P  1
       1               1.40700000               1.00000000
   P  1
       1               0.38800000               1.00000000
   D  1
       1               1.05700000               1.00000000
   end
end
! CCSD(T)   
*xyz  0 3
 C      0.00000000     0.00000000     0.00000000
*
%MaxCore  16000
%scf
   MaxIter 500 
   Convergence  VeryTight
end
%pal nprocs  1 
end
%method
  IntAcc 7.0
  NewNCore C  2  end
end
%basis 
   NewGTO   C
   S  6
       1            3047.52488000               0.00183474
       2             457.36951800               0.01403732
       3             103.94868500               0.06884262
       4              29.21015530               0.23218444
       5               9.28666296               0.46794135
       6               3.16392696               0.36231199
   S  3
       1               7.86827235              -0.11933242
       2               1.88128854              -0.16085415
       3               0.54424926               1.14345644
   P  3
       1               7.86827235               0.06899907
       2               1.88128854               0.31642396
       3               0.54424926               0.74430829
   S  1
       1               0.16871448               1.00000000
   P  1
       1               0.16871448               1.00000000
   D  1
       1               0.80000000               1.00000000
   end
end
! MP2   
*xyz  0 3
 C      0.00000000     0.00000000     0.00000000
*
%MaxCore  16000
%scf
   MaxIter 500 
   Convergence  VeryTight
end
%pal nprocs  1 
end
%method
  IntAcc 7.0
  NewNCore C  2  end
end
%basis 
   NewGTO   C
   S  6
       1            4563.24000000               0.00196665
       2             682.02400000               0.01523060
       3             154.97300000               0.07612691
       4              44.45530000               0.26080103
       5              13.02900000               0.61646208
       6               1.82773000               0.22100603
   S  3
       1              20.96420000               0.11466008
       2               4.80331000               0.91999965
       3               1.45933000              -0.00303068
   P  3
       1              20.96420000               0.04024869
       2               4.80331000               0.23759396
       3               1.45933000               0.81585385
   S  1
       1               0.48345600               1.00000000
   P  1
       1               0.48345600               1.00000000
   S  1
       1               0.14558500               1.00000000
   P  1
       1               0.14558500               1.00000000
   S  1
       1               0.04380000               1.00000000
   P  1
       1               0.04380000               1.00000000
   D  1
       1               2.50400000               1.00000000
   D  1
       1               0.62600000               1.00000000
   D  1
       1               0.15650000               1.00000000
   F  1
       1               0.80000000               1.00000000
   end
end
! HF   
*xyz  0 3
 C      0.00000000     0.00000000     0.00000000
*
%MaxCore  16000
%scf
   MaxIter 500 
   Convergence  VeryTight
end
%pal nprocs  1 
end
%method
  IntAcc 7.0
end
%basis 
   NewGTO   C
   S  7
       1            8236.00000000               0.00054198
       2            1235.00000000               0.00419287
       3             280.80000000               0.02152216
       4              79.27000000               0.08353432
       5              25.59000000               0.23958285
       6               8.99700000               0.44285284
       7               3.31900000               0.35179956
   S  6
       1             280.80000000              -0.00005949
       2              79.27000000              -0.00114816
       3              25.59000000              -0.01001914
       4               8.99700000              -0.06121949
       5               3.31900000              -0.17326985
       6               0.36430000               1.07291519
   S  1
       1               0.90590000               1.00000000
   S  1
       1               0.12850000               1.00000000
   S  1
       1               0.04402000               1.00000000
   P  3
       1              18.71000000               0.03942639
       2               4.13300000               0.24408898
       3               1.20000000               0.81549201
   P  1
       1               0.38270000               1.00000000
   P  1
       1               0.12090000               1.00000000
   P  1
       1               0.03569000               1.00000000
   D  1
       1               1.09700000               1.00000000
   D  1
       1               0.31800000               1.00000000
   F  1
       1               0.76100000               1.00000000
   end
end
! HF   
*xyz  0 3
 C      0.00000000     0.00000000     0.00000000
*
%MaxCore  16000
%scf
   MaxIter 500 
   Convergence  VeryTight
end
%pal nprocs  1 
end
%method
  IntAcc 7.0
end
%basis 
   NewGTO   C
   S  8
       1           33980.00000000               0.00014681
       2            5089.00000000               0.00111646
       3            1157.00000000               0.00589089
       4             326.60000000               0.02421726
       5             106.10000000               0.08317164
       6              38.11000000               0.22056848
       7              14.75000000               0.42873150
       8               6.03500000               0.36436142
   S  7
       1            5089.00000000              -0.00001002
       2             326.60000000              -0.00043659
       3             106.10000000              -0.00193231
       4              38.11000000              -0.02148395
       5              14.75000000              -0.09030917
       6               6.03500000              -0.41879151
       7               2.53000000              -0.53180191
   S  1
       1               0.73550000               1.00000000
   S  1
       1               0.29050000               1.00000000
   S  1
       1               0.11110000               1.00000000
   S  1
       1               0.04145000               1.00000000
   P  3
       1              34.51000000               0.03168786
       2               7.91500000               0.21289431
       3               2.36800000               0.83958675
   P  1
       1               0.81320000               1.00000000
   P  1
       1               0.28900000               1.00000000
   P  1
       1               0.10070000               1.00000000
   P  1
       1               0.03218000               1.00000000
   D  1
       1               1.84800000               1.00000000
   D  1
       1               0.64900000               1.00000000
   D  1
       1               0.22800000               1.00000000
   F  1
       1               1.41900000               1.00000000
   F  1
       1               0.48500000               1.00000000
   G  1
       1               1.01100000               1.00000000
   end
end
! CCSD(T)   
*xyz  0 2
 H      0.00000000     0.00000000     0.00000000
*
%MaxCore  16000
%scf
   MaxIter 500 
   Convergence  VeryTight
end
%pal nprocs  1 
end
%method
  IntAcc 7.0
  NewNCore H  0  end
end
%basis 
   NewGTO   H
   S  3
       1              18.73113696               0.03349460
       2               2.82539437               0.23472695
       3               0.64012169               0.81375733
   S  1
       1               0.16127776               1.00000000
   P  1
       1          100000.00000000               1.00000000
   end
end
! MP2   
*xyz  0 2
 H      0.00000000     0.00000000     0.00000000
*
%MaxCore  16000
%scf
   MaxIter 500 
   Convergence  VeryTight
end
%pal nprocs  1 
end
%method
  IntAcc 7.0
  NewNCore H  0  end
end
%basis 
   NewGTO   H
   S  3
       1              33.86500000               0.02549381
       2               5.09479000               0.19037311
       3               1.15879000               0.85216149
   S  1
       1               0.32584000               1.00000000
   S  1
       1               0.10274100               1.00000000
   S  1
       1               0.03600000               1.00000000
   P  1
       1               1.50000000               1.00000000
   P  1
       1               0.37500000               1.00000000
   end
end
! HF   
*xyz  0 2
 H      0.00000000     0.00000000     0.00000000
*
%MaxCore  16000
%scf
   MaxIter 500 
   Convergence  VeryTight
end
%pal nprocs  1 
end
%method
  IntAcc 7.0
end
%basis 
   NewGTO   H
   S  3
       1              33.87000000               0.02549486
       2               5.09500000               0.19036277
       3               1.15900000               0.85216202
   S  1
       1               0.32580000               1.00000000
   S  1
       1               0.10270000               1.00000000
   P  1
       1               0.72700000               1.00000000
   end
end
! HF   
*xyz  0 2
 H      0.00000000     0.00000000     0.00000000
*
%MaxCore  16000
%scf
   MaxIter 500 
   Convergence  VeryTight
end
%pal nprocs  1 
end
%method
  IntAcc 7.0
end
%basis 
   NewGTO   H
   S  3
       1              82.64000000               0.02295076
       2              12.41000000               0.17554012
       3               2.82400000               0.86470355
   S  1
       1               0.79770000               1.00000000
   S  1
       1               0.25810000               1.00000000
   S  1
       1               0.08989000               1.00000000
   P  1
       1               1.40700000               1.00000000
   P  1
       1               0.38800000               1.00000000
   D  1
       1               1.05700000               1.00000000
   end
end
! B3LYP/G Grid5   TightOpt  Freq  
*xyz  0 1
 C      0.00000000     0.00000000     0.00000000
 H      1.09336000     0.00000000     0.00000000
 H     -0.36445000     0.00000000    -1.03083000
 H     -0.36445000    -0.97188000     0.34361000
 H     -0.36445000     0.97188000     0.34361000
*
%MaxCore  16000
%scf
   MaxIter 500 
   Convergence  VeryTight
end
%pal nprocs  1 
end
%method
  IntAcc 7.0
end
%geom
  Calc_Hess true
  Recalc_Hess 5 
end
%freq  Temp  273.15, 298.15
end
%basis 
   NewGTO   H
   S  3
       1              18.73113696               0.03349460
       2               2.82539437               0.23472695
       3               0.64012169               0.81375733
   S  1
       1               0.16127776               1.00000000
   P  1
       1               1.10000000               1.00000000
   end
   NewGTO   C
   S  6
       1            3047.52488000               0.00183474
       2             457.36951800               0.01403732
       3             103.94868500               0.06884262
       4              29.21015530               0.23218444
       5               9.28666296               0.46794135
       6               3.16392696               0.36231199
   S  3
       1               7.86827235              -0.11933242
       2               1.88128854              -0.16085415
       3               0.54424926               1.14345644
   P  3
       1               7.86827235               0.06899907
       2               1.88128854               0.31642396
       3               0.54424926               0.74430829
   S  1
       1               0.16871448               1.00000000
   P  1
       1               0.16871448               1.00000000
   D  1
       1               1.60000000               1.00000000
   D  1
       1               0.40000000               1.00000000
   F  1
       1               0.80000000               1.00000000
   end
end
! CCSD(T)   
*xyz  0 1
 C      0.00000022    -0.00000004     0.00000000
 H     -0.13652970    -1.08337019     0.00209171
 H      1.06692371     0.23240105    -0.00163453
 H     -0.46621724     0.42389181    -0.89179015
 H     -0.46417945     0.42707778     0.89133296
*
%MaxCore  16000
%scf
   MaxIter 500 
   Convergence  VeryTight
end
%pal nprocs  1 
end
%method
  IntAcc 7.0
  NewNCore H  0  end
  NewNCore C  2  end
end
%basis 
   NewGTO   H
   S  3
       1              18.73113696               0.03349460
       2               2.82539437               0.23472695
       3               0.64012169               0.81375733
   S  1
       1               0.16127776               1.00000000
   end
   NewGTO   C
   S  6
       1            3047.52488000               0.00183474
       2             457.36951800               0.01403732
       3             103.94868500               0.06884262
       4              29.21015530               0.23218444
       5               9.28666296               0.46794135
       6               3.16392696               0.36231199
   S  3
       1               7.86827235              -0.11933242
       2               1.88128854              -0.16085415
       3               0.54424926               1.14345644
   P  3
       1               7.86827235               0.06899907
       2               1.88128854               0.31642396
       3               0.54424926               0.74430829
   S  1
       1               0.16871448               1.00000000
   P  1
       1               0.16871448               1.00000000
   D  1
       1               0.80000000               1.00000000
   end
end
! MP2   
*xyz  0 1
 C      0.00000022    -0.00000004     0.00000000
 H     -0.13652970    -1.08337019     0.00209171
 H      1.06692371     0.23240105    -0.00163453
 H     -0.46621724     0.42389181    -0.89179015
 H     -0.46417945     0.42707778     0.89133296
*
%MaxCore  16000
%scf
   MaxIter 500 
   Convergence  VeryTight
end
%pal nprocs  1 
end
%method
  IntAcc 7.0
  NewNCore H  0  end
  NewNCore C  2  end
end
%basis 
   NewGTO   H
   S  3
       1              33.86500000               0.02549381
       2               5.09479000               0.19037311
       3               1.15879000               0.85216149
   S  1
       1               0.32584000               1.00000000
   S  1
       1               0.10274100               1.00000000
   S  1
       1               0.03600000               1.00000000
   P  1
       1               1.50000000               1.00000000
   P  1
       1               0.37500000               1.00000000
   end
   NewGTO   C
   S  6
       1            4563.24000000               0.00196665
       2             682.02400000               0.01523060
       3             154.97300000               0.07612691
       4              44.45530000               0.26080103
       5              13.02900000               0.61646208
       6               1.82773000               0.22100603
   S  3
       1              20.96420000               0.11466008
       2               4.80331000               0.91999965
       3               1.45933000              -0.00303068
   P  3
       1              20.96420000               0.04024869
       2               4.80331000               0.23759396
       3               1.45933000               0.81585385
   S  1
       1               0.48345600               1.00000000
   P  1
       1               0.48345600               1.00000000
   S  1
       1               0.14558500               1.00000000
   P  1
       1               0.14558500               1.00000000
   S  1
       1               0.04380000               1.00000000
   P  1
       1               0.04380000               1.00000000
   D  1
       1               2.50400000               1.00000000
   D  1
       1               0.62600000               1.00000000
   D  1
       1               0.15650000               1.00000000
   F  1
       1               0.80000000               1.00000000
   end
end
! HF   
*xyz  0 1
 C      0.00000022    -0.00000004     0.00000000
 H     -0.13652970    -1.08337019     0.00209171
 H      1.06692371     0.23240105    -0.00163453
 H     -0.46621724     0.42389181    -0.89179015
 H     -0.46417945     0.42707778     0.89133296
*
%MaxCore  16000
%scf
   MaxIter 500 
   Convergence  VeryTight
end
%pal nprocs  1 
end
%method
  IntAcc 7.0
end
%basis 
   NewGTO   H
   S  3
       1              33.87000000               0.02549486
       2               5.09500000               0.19036277
       3               1.15900000               0.85216202
   S  1
       1               0.32580000               1.00000000
   S  1
       1               0.10270000               1.00000000
   P  1
       1               0.72700000               1.00000000
   end
   NewGTO   C
   S  7
       1            8236.00000000               0.00054198
       2            1235.00000000               0.00419287
       3             280.80000000               0.02152216
       4              79.27000000               0.08353432
       5              25.59000000               0.23958285
       6               8.99700000               0.44285284
       7               3.31900000               0.35179956
   S  6
       1             280.80000000              -0.00005949
       2              79.27000000              -0.00114816
       3              25.59000000              -0.01001914
       4               8.99700000              -0.06121949
       5               3.31900000              -0.17326985
       6               0.36430000               1.07291519
   S  1
       1               0.90590000               1.00000000
   S  1
       1               0.12850000               1.00000000
   S  1
       1               0.04402000               1.00000000
   P  3
       1              18.71000000               0.03942639
       2               4.13300000               0.24408898
       3               1.20000000               0.81549201
   P  1
       1               0.38270000               1.00000000
   P  1
       1               0.12090000               1.00000000
   P  1
       1               0.03569000               1.00000000
   D  1
       1               1.09700000               1.00000000
   D  1
       1               0.31800000               1.00000000
   F  1
       1               0.76100000               1.00000000
   end
end
! HF   
*xyz  0 1
 C      0.00000022    -0.00000004     0.00000000
 H     -0.13652970    -1.08337019     0.00209171
 H      1.06692371     0.23240105    -0.00163453
 H     -0.46621724     0.42389181    -0.89179015
 H     -0.46417945     0.42707778     0.89133296
*
%MaxCore  16000
%scf
   MaxIter 500 
   Convergence  VeryTight
end
%pal nprocs  1 
end
%method
  IntAcc 7.0
end
%basis 
   NewGTO   H
   S  3
       1              82.64000000               0.02295076
       2              12.41000000               0.17554012
       3               2.82400000               0.86470355
   S  1
       1               0.79770000               1.00000000
   S  1