! B3LYP/G Grid7 RIJCOSX def2/J GridX9 Printbasis   TightOpt  Freq  
*xyz  0 1
 H      0.00000000     0.00000000     0.00000000
 H      0.00000000     0.00000000     0.75000000
*
%MaxCore  16000
%scf
   MaxIter 500 
   Convergence  VeryTight
end
%pal nprocs  1 
end
%method
  IntAcc 7.0
end
%geom
  Calc_Hess true
  Recalc_Hess 5 
end
%freq  Temp  273.15, 298.15
end
%basis 
   NewGTO   H
   S  3
       1              18.73113696               0.03349460
       2               2.82539437               0.23472695
       3               0.64012169               0.81375733
   S  1
       1               0.16127776               1.00000000
   P  1
       1               1.10000000               1.00000000
   end
end
! DLPNO-CCSD(T) RI-MP2 def2-SVP/C RIJK def2/JK TightPNO Printbasis   
*xyz  0 1
 H      0.00000000     0.00000000     0.00375832
 H      0.00000000     0.00000000     0.74624168
*
%MaxCore  16000
%scf
   MaxIter 500 
   Convergence  VeryTight
end
%mdci
  UseFullLMP2Guess true
  TcutDOPre =  0.03
end
%pal nprocs  1 
end
%method
  IntAcc 7.0
  NewNCore H  0  end
end
%basis 
   NewGTO   H
   S  3
       1              18.73113696               0.03349460
       2               2.82539437               0.23472695
       3               0.64012169               0.81375733
   S  1
       1               0.16127776               1.00000000
   end
end
! RI-MP2 def2-TZVP/C RIJK def2/JK Printbasis   
*xyz  0 1
 H      0.00000000     0.00000000     0.00375832
 H      0.00000000     0.00000000     0.74624168
*
%MaxCore  16000
%scf
   MaxIter 500 
   Convergence  VeryTight
end
%pal nprocs  1 
end
%method
  IntAcc 7.0
  NewNCore H  0  end
end
%basis 
   NewGTO   H
   S  3
       1              33.86500000               0.02549381
       2               5.09479000               0.19037311
       3               1.15879000               0.85216149
   S  1
       1               0.32584000               1.00000000
   S  1
       1               0.10274100               1.00000000
   S  1
       1               0.03600000               1.00000000
   P  1
       1               1.50000000               1.00000000
   P  1
       1               0.37500000               1.00000000
   end
end
! HF RIJK def2/JK Printbasis   
*xyz  0 1
 H      0.00000000     0.00000000     0.00375832
 H      0.00000000     0.00000000     0.74624168
*
%MaxCore  16000
%scf
   MaxIter 500 
   Convergence  VeryTight
end
%pal nprocs  1 
end
%method
  IntAcc 7.0
end
%basis 
   NewGTO   H
   S  3
       1              33.87000000               0.02549486
       2               5.09500000               0.19036277
       3               1.15900000               0.85216202
   S  1
       1               0.32580000               1.00000000
   S  1
       1               0.10270000               1.00000000
   P  1
       1               0.72700000               1.00000000
   end
end
! HF RIJK def2/JK Printbasis   
*xyz  0 1
 H      0.00000000     0.00000000     0.00375832
 H      0.00000000     0.00000000     0.74624168
*
%MaxCore  16000
%scf
   MaxIter 500 
   Convergence  VeryTight
end
%pal nprocs  1 
end
%method
  IntAcc 7.0
end
%basis 
   NewGTO   H
   S  3
       1              82.64000000               0.02295076
       2              12.41000000               0.17554012
       3               2.82400000               0.86470355
   S  1
       1               0.79770000               1.00000000
   S  1
       1               0.25810000               1.00000000
   S  1
       1               0.08989000               1.00000000
   P  1
       1               1.40700000               1.00000000
   P  1
       1               0.38800000               1.00000000
   D  1
       1               1.05700000               1.00000000
   end
end
! B3LYP/G Grid7 RIJCOSX def2/J GridX9 Printbasis   TightOpt  Freq  
*xyz  0 1
 H      0.00000000     0.00000000     0.00000000
 H      0.00000000     0.00000000     0.75000000
*
%MaxCore  16000
%scf
   MaxIter 500 
   Convergence  VeryTight
end
%pal nprocs  1 
end
%method
  IntAcc 7.0
end
%geom
  Calc_Hess true
  Recalc_Hess 5 
end
%freq  Temp  273.15, 298.15
end
%basis 
   NewGTO   H
   S  3
       1              18.73113696               0.03349460
       2               2.82539437               0.23472695
       3               0.64012169               0.81375733
   S  1
       1               0.16127776               1.00000000
   P  1
       1               1.10000000               1.00000000
   end
end
! DLPNO-CCSD(T) RI-MP2 def2-SVP/C RIJK def2/JK TightPNO Printbasis   
*xyz  0 1
 H      0.00000000     0.00000000     0.00375832
 H      0.00000000     0.00000000     0.74624168
*
%MaxCore  16000
%scf
   MaxIter 500 
   Convergence  VeryTight
end
%mdci
  UseFullLMP2Guess true
  TcutDOPre =  0.03
end
%pal nprocs  1 
end
%method
  IntAcc 7.0
  NewNCore H  0  end
end
%basis 
   NewGTO   H
   S  3
       1              18.73113696               0.03349460
       2               2.82539437               0.23472695
       3               0.64012169               0.81375733
   S  1
       1               0.16127776               1.00000000
   end
end
! RI-MP2 def2-TZVP/C RIJK def2/JK Printbasis   
*xyz  0 1
 H      0.00000000     0.00000000     0.00375832
 H      0.00000000     0.00000000     0.74624168
*
%MaxCore  16000
%scf
   MaxIter 500 
   Convergence  VeryTight
end
%pal nprocs  1 
end
%method
  IntAcc 7.0
  NewNCore H  0  end
end
%basis 
   NewGTO   H
   S  3
       1              33.86500000               0.02549381
       2               5.09479000               0.19037311
       3               1.15879000               0.85216149
   S  1
       1               0.32584000               1.00000000
   S  1
       1               0.10274100               1.00000000
   S  1
       1               0.03600000               1.00000000
   P  1
       1               1.50000000               1.00000000
   P  1
       1               0.37500000               1.00000000
   end
end
! HF RIJK def2/JK Printbasis   
*xyz  0 1
 H      0.00000000     0.00000000     0.00375832
 H      0.00000000     0.00000000     0.74624168
*
%MaxCore  16000
%scf
   MaxIter 500 
   Convergence  VeryTight
end
%pal nprocs  1 
end
%method
  IntAcc 7.0
end
%basis 
   NewGTO   H
   S  3
       1              33.87000000               0.02549486
       2               5.09500000               0.19036277
       3               1.15900000               0.85216202
   S  1
       1               0.32580000               1.00000000
   S  1
       1               0.10270000               1.00000000
   P  1
       1               0.72700000               1.00000000
   end
end
! HF RIJK def2/JK Printbasis   
*xyz  0 1
 H      0.00000000     0.00000000     0.00375832
 H      0.00000000     0.00000000     0.74624168
*
%MaxCore  16000
%scf
   MaxIter 500 
   Convergence  VeryTight
end
%pal nprocs  1 
end
%method
  IntAcc 7.0
end
%basis 
   NewGTO   H
   S  3
       1              82.64000000               0.02295076
       2              12.41000000               0.17554012
       3               2.82400000               0.86470355
   S  1
       1               0.79770000               1.00000000
   S  1
       1               0.25810000               1.00000000
   S  1
       1               0.08989000               1.00000000
   P  1
       1               1.40700000               1.00000000
   P  1
       1               0.38800000               1.00000000
   D  1
       1               1.05700000               1.00000000
   end
end
! B3LYP/G Grid5   TightOpt  Freq  
*xyz  0 1
 H      0.00000000     0.00000000     0.00000000
 H      0.00000000     0.00000000     0.75000000
*
%MaxCore  16000
%scf
   MaxIter 500 
   Convergence  VeryTight
end
%pal nprocs  1 
end
%method
  IntAcc 7.0
end
%geom
  Calc_Hess true
  Recalc_Hess 5 
end
%freq  Temp  273.15, 298.15
end
%basis 
   NewGTO   H
   S  3
       1              18.73113696               0.03349460
       2               2.82539437               0.23472695
       3               0.64012169               0.81375733
   S  1
       1               0.16127776               1.00000000
   P  1
       1               1.10000000               1.00000000
   end
end
! CCSD(T)   
*xyz  0 1
 H      0.00000000     0.00000000     0.00360316
 H      0.00000000     0.00000000     0.74639684
*
%MaxCore  16000
%scf
   MaxIter 500 
   Convergence  VeryTight
end
%pal nprocs  1 
end
%method
  IntAcc 7.0
  NewNCore H  0  end
end
%basis 
   NewGTO   H
   S  3
       1              18.73113696               0.03349460
       2               2.82539437               0.23472695
       3               0.64012169               0.81375733
   S  1
       1               0.16127776               1.00000000
   end
end
! MP2   
*xyz  0 1
 H      0.00000000     0.00000000     0.00360316
 H      0.00000000     0.00000000     0.74639684
*
%MaxCore  16000
%scf
   MaxIter 500 
   Convergence  VeryTight
end
%pal nprocs  1 
end
%method
  IntAcc 7.0
  NewNCore H  0  end
end
%basis 
   NewGTO   H
   S  3
       1              33.86500000               0.02549381
       2               5.09479000               0.19037311
       3               1.15879000               0.85216149
   S  1
       1               0.32584000               1.00000000
   S  1
       1               0.10274100               1.00000000
   S  1
       1               0.03600000               1.00000000
   P  1
       1               1.50000000               1.00000000
   P  1
       1               0.37500000               1.00000000
   end
end
! HF   
*xyz  0 1
 H      0.00000000     0.00000000     0.00360316
 H      0.00000000     0.00000000     0.74639684
*
%MaxCore  16000
%scf
   MaxIter 500 
   Convergence  VeryTight
end
%pal nprocs  1 
end
%method
  IntAcc 7.0
end
%basis 
   NewGTO   H
   S  3
       1              33.87000000               0.02549486
       2               5.09500000               0.19036277
       3               1.15900000               0.85216202
   S  1
       1               0.32580000               1.00000000
   S  1
       1               0.10270000               1.00000000
   P  1
       1               0.72700000               1.00000000
   end
end
! HF   
*xyz  0 1
 H      0.00000000     0.00000000     0.00360316
 H      0.00000000     0.00000000     0.74639684
*
%MaxCore  16000
%scf
   MaxIter 500 
   Convergence  VeryTight
end
%pal nprocs  1 
end
%method
  IntAcc 7.0
end
%basis 
   NewGTO   H
   S  3
       1              82.64000000               0.02295076
       2              12.41000000               0.17554012
       3               2.82400000               0.86470355
   S  1
       1               0.79770000               1.00000000
   S  1
       1               0.25810000               1.00000000
   S  1
       1               0.08989000               1.00000000
   P  1
       1               1.40700000               1.00000000
   P  1
       1               0.38800000               1.00000000
   D  1
       1               1.05700000               1.00000000
   end
end
! B3LYP/G Grid5   TightOpt  Freq  
*xyz  0 1
 H      0.00000000     0.00000000     0.00000000
 H      0.00000000     0.00000000     0.75000000
*
%MaxCore  16000
%scf
   MaxIter 500 
   Convergence  VeryTight
end
%pal nprocs  1 
end
%method
  IntAcc 7.0
end
%geom
  Calc_Hess true
  Recalc_Hess 5 
end
%freq  Temp  273.15, 298.15
end
%basis 
   NewGTO   H
   S  3
       1              18.73113696               0.03349460
       2               2.82539437               0.23472695
       3               0.64012169               0.81375733
   S  1
       1               0.16127776               1.00000000
   P  1
       1               1.10000000               1.00000000
   end
end
! CCSD(T)   
*xyz  0 1
 H      0.00000000     0.00000000     0.00360316
 H      0.00000000     0.00000000     0.74639684
*
%MaxCore  16000
%scf
   MaxIter 500 
   Convergence  VeryTight
end
%pal nprocs  1 
end
%method
  IntAcc 7.0
  NewNCore H  0  end
end
%basis 
   NewGTO   H
   S  3
       1              18.73113696               0.03349460
       2               2.82539437               0.23472695
       3               0.64012169               0.81375733
   S  1
       1               0.16127776               1.00000000
   end
end
! MP2   
*xyz  0 1
 H      0.00000000     0.00000000     0.00360316
 H      0.00000000     0.00000000     0.74639684
*
%MaxCore  16000
%scf
   MaxIter 500 
   Convergence  VeryTight
end
%pal nprocs  1 
end
%method
  IntAcc 7.0
  NewNCore H  0  end
end
%basis 
   NewGTO   H
   S  3
       1              33.86500000               0.02549381
       2               5.09479000               0.19037311
       3               1.15879000               0.85216149
   S  1
       1               0.32584000               1.00000000
   S  1
       1               0.10274100               1.00000000
   S  1
       1               0.03600000               1.00000000
   P  1
       1               1.50000000               1.00000000
   P  1
       1               0.37500000               1.00000000
   end
end
! HF   
*xyz  0 1
 H      0.00000000     0.00000000     0.00360316
 H      0.00000000     0.00000000     0.74639684
*
%MaxCore  16000
%scf
   MaxIter 500 
   Convergence  VeryTight
end
%pal nprocs  1 
end
%method
  IntAcc 7.0
end
%basis 
   NewGTO   H
   S  3
       1              33.87000000               0.02549486
       2               5.09500000               0.19036277
       3               1.15900000               0.85216202
   S  1
       1               0.32580000               1.00000000
   S  1
       1               0.10270000               1.00000000
   P  1
       1               0.72700000               1.00000000
   end
end
! HF   
*xyz  0 1
 H      0.00000000     0.00000000     0.00360316
 H      0.00000000     0.00000000     0.74639684
*
%MaxCore  16000
%scf
   MaxIter 500 
   Convergence  VeryTight
end
%pal nprocs  1 
end
%method
  IntAcc 7.0
end
%basis 
   NewGTO   H
   S  3
       1              82.64000000               0.02295076
       2              12.41000000               0.17554012
       3               2.82400000               0.86470355
   S  1
       1               0.79770000               1.00000000
   S  1
       1               0.25810000               1.00000000
   S  1
       1               0.08989000               1.00000000
   P  1
       1               1.40700000               1.00000000
   P  1
       1               0.38800000               1.00000000
   D  1
       1               1.05700000               1.00000000
   end
end
! B3LYP/G Grid5   TightOpt  Freq  
*xyz  0 1
 H      0.00000000     0.00000000     0.00000000
 H      0.00000000     0.00000000     0.75000000
*
%MaxCore  16000
%scf
   MaxIter 500 
   Convergence  VeryTight
end
%pal nprocs  1 
end
%method
  IntAcc 7.0
end
%geom
  Calc_Hess true
  Recalc_Hess 5 
end
%freq  Temp  273.15, 298.15
end
%basis 
   NewGTO   H
   S  3
       1              18.73113696               0.03349460
       2               2.82539437               0.23472695
       3               0.64012169               0.81375733
   S  1
       1               0.16127776               1.00000000
   P  1
       1               1.10000000               1.00000000
   end
end
! CCSD(T)   
*xyz  0 1
 H      0.00000000     0.00000000     0.00360316
 H      0.00000000     0.00000000     0.74639684
*
%MaxCore  16000
%scf
   MaxIter 500 
   Convergence  VeryTight
end
%pal nprocs  1 
end
%method
  IntAcc 7.0
  NewNCore H  0  end
end
%basis 
   NewGTO   H
   S  3
       1              18.73113696               0.03349460
       2               2.82539437               0.23472695
       3               0.64012169               0.81375733
   S  1
       1               0.16127776               1.00000000
   end
end
! MP2   
*xyz  0 1
 H      0.00000000     0.00000000     0.00360316
 H      0.00000000     0.00000000     0.74639684
*
%MaxCore  16000
%scf
   MaxIter 500 
   Convergence  VeryTight
end
%pal nprocs  1 
end
%method
  IntAcc 7.0
  NewNCore H  0  end
end
%basis 
   NewGTO   H
   S  3
       1              33.86500000               0.02549381
       2               5.09479000               0.19037311
       3               1.15879000               0.85216149
   S  1
       1               0.32584000               1.00000000
   S  1
       1               0.10274100               1.00000000
   S  1
       1               0.03600000               1.00000000
   P  1
       1               1.50000000               1.00000000
   P  1
       1               0.37500000               1.00000000
   end
end
! HF   
*xyz  0 1
 H      0.00000000     0.00000000     0.00360316
 H      0.00000000     0.00000000     0.74639684
*
%MaxCore  16000
%scf
   MaxIter 500 
   Convergence  VeryTight
end
%pal nprocs  1 
end
%method
  IntAcc 7.0
end
%basis 
   NewGTO   H
   S  3
       1              33.87000000               0.02549486
       2               5.09500000               0.19036277
       3               1.15900000               0.85216202
   S  1
       1               0.32580000               1.00000000
   S  1
       1               0.10270000               1.00000000
   P  1
       1               0.72700000               1.00000000
   end
end
! HF   
*xyz  0 1
 H      0.00000000     0.00000000     0.00360316
 H      0.00000000     0.00000000     0.74639684
*
%MaxCore  16000
%scf
   MaxIter 500 
   Convergence  VeryTight
end
%pal nprocs  1 
end
%method
  IntAcc 7.0
end
%basis 
   NewGTO   H
   S  3
       1              82.64000000               0.02295076
       2              12.41000000               0.17554012
       3               2.82400000               0.86470355
   S  1
       1               0.79770000               1.00000000
   S  1
       1               0.25810000               1.00000000
   S  1
       1               0.08989000               1.00000000
   P  1
       1               1.40700000               1.00000000
   P  1
       1               0.38800000               1.00000000
   D  1
       1               1.05700000               1.00000000
   end
end
! B3LYP/G Grid5   TightOpt  Freq  
*xyz  0 1
 H      0.00000000     0.00000000     0.00000000
 H      0.00000000     0.00000000     0.75000000
*
%MaxCore  16000
%scf
   MaxIter 500 
   Convergence  VeryTight
end
%pal nprocs  1 
end
%method
  IntAcc 7.0
end
%geom
  Calc_Hess true
  Recalc_Hess 5 
end
%freq  Temp  273.15, 298.15
end
%basis 
   NewGTO   H
   S  3
       1              18.73113696               0.03349460
       2               2.82539437               0.23472695
       3               0.64012169               0.81375733
   S  1
       1               0.16127776               1.00000000
   P  1
       1               1.10000000               1.00000000
   end
end
! CCSD(T)   
*xyz  0 1
 H      0.00000000     0.00000000     0.00360316
 H      0.00000000     0.00000000     0.74639684
*
%MaxCore  16000
%scf
   MaxIter 500 
   Convergence  VeryTight
end
%pal nprocs  1 
end
%method
  IntAcc 7.0
  NewNCore H  0  end
end
%basis 
   NewGTO   H
   S  3
       1              18.73113696               0.03349460
       2               2.82539437               0.23472695
       3               0.64012169               0.81375733
   S  1
       1               0.16127776               1.00000000
   end
end
! MP2   
*xyz  0 1
 H      0.00000000     0.00000000     0.00360316
 H      0.00000000     0.00000000     0.74639684
*
%MaxCore  16000
%scf
   MaxIter 500 
   Convergence  VeryTight
end
%pal nprocs  1 
end
%method
  IntAcc 7.0
  NewNCore H  0  end
end
%basis 
   NewGTO   H
   S  3
       1              33.86500000               0.02549381
       2               5.09479000               0.19037311
       3               1.15879000               0.85216149
   S  1
       1               0.32584000               1.00000000
   S  1
       1               0.10274100               1.00000000
   S  1
       1               0.03600000               1.00000000
   P  1
       1               1.50000000               1.00000000
   P  1
       1               0.37500000               1.00000000
   end
end
! HF   
*xyz  0 1
 H      0.00000000     0.00000000     0.00360316
 H      0.00000000     0.00000000     0.74639684
*
%MaxCore  16000
%scf
   MaxIter 500 
   Convergence  VeryTight
end
%pal nprocs  1 
end
%method
  IntAcc 7.0
end
%basis 
   NewGTO   H
   S  3
       1              33.87000000               0.02549486
       2               5.09500000               0.19036277
       3               1.15900000               0.85216202
   S  1
       1               0.32580000               1.00000000
   S  1
       1               0.10270000               1.00000000
   P  1
       1               0.72700000               1.00000000
   end
end
! HF   
*xyz  0 1
 H      0.00000000     0.00000000     0.00360316
 H      0.00000000     0.00000000     0.74639684
*
%MaxCore  16000
%scf
   MaxIter 500 
   Convergence  VeryTight
end
%pal nprocs  1 
end
%method
  IntAcc 7.0
end
%basis 
   NewGTO   H
   S  3
       1              82.64000000               0.02295076
       2              12.41000000               0.17554012
       3               2.82400000               0.86470355
   S  1
       1               0.79770000               1.00000000
   S  1
       1               0.25810000               1.00000000
   S  1
       1               0.08989000               1.00000000
   P  1
       1               1.40700000               1.00000000
   P  1
       1               0.38800000               1.00000000
   D  1
       1               1.05700000               1.00000000
   end
end
! B3LYP/G Grid5   TightOpt  Freq  
*xyz  0 1
 O      0.00000000     0.00000000     0.00000000
 H      0.96854000     0.00000000     0.00000000
 H     -0.22812000     0.00000000    -0.94129000
*
%MaxCore  16000
%scf
   MaxIter 500 
   Convergence  VeryTight
end
%pal nprocs  1 
end
%method
  IntAcc 7.0
end
%geom
  Calc_Hess true
  Recalc_Hess 5 
end
%freq  Temp  273.15, 298.15
end
%basis 
   NewGTO   O
   S  6
       1            5484.67166000               0.00183107
       2             825.23494600               0.01395017
       3             188.04695800               0.06844508
       4              52.96450000               0.23271434
       5              16.89757040               0.47019290
       6               5.79963534               0.35852085
   S  3
       1              15.53961625              -0.11077755
       2               3.59993359              -0.14802626
       3               1.01376175               1.13076701
   P  3
       1              15.53961625               0.07087427
       2               3.59993359               0.33975284
       3               1.01376175               0.72715858
   S  1
       1               0.27000582               1.00000000
   P  1
       1               0.27000582               1.00000000
   D  1
       1               1.60000000               1.00000000
   D  1
       1               0.40000000               1.00000000
   F  1
       1               1.40000000               1.00000000
   end
   NewGTO   H
   S  3
       1              18.73113696               0.03349460
       2               2.82539437               0.23472695
       3               0.64012169               0.81375733
   S  1
       1               0.16127776               1.00000000
   P  1
       1               1.10000000               1.00000000
   end
end
! CCSD(T)   
*xyz  0 1
 O     -0.00000009    -0.06637355     0.00000000
 H     -0.75663523     0.52669876     0.00000000
 H      0.75663672     0.52669759     0.00000000
*
%MaxCore  16000
%scf
   MaxIter 500 
   Convergence  VeryTight
end
%pal nprocs  1 
end
%method
  IntAcc 7.0
  NewNCore O  2  end
  NewNCore H  0  end
end
%basis 
   NewGTO   O
   S  6
       1            5484.67166000               0.00183107
       2             825.23494600               0.01395017
       3             188.04695800               0.06844508
       4              52.96450000               0.23271434
       5              16.89757040               0.47019290
       6               5.79963534               0.35852085
   S  3
       1              15.53961625              -0.11077755
       2               3.59993359              -0.14802626
       3               1.01376175               1.13076701
   P  3
       1              15.53961625               0.07087427
       2               3.59993359               0.33975284
       3               1.01376175               0.72715858
   S  1
       1               0.27000582               1.00000000
   P  1
       1               0.27000582               1.00000000
   D  1
       1               0.80000000               1.00000000
   end
   NewGTO   H
   S  3
       1              18.73113696               0.03349460
       2               2.82539437               0.23472695
       3               0.64012169               0.81375733
   S  1
       1               0.16127776               1.00000000
   end
end
! MP2   
*xyz  0 1
 O     -0.00000009    -0.06637355     0.00000000
 H     -0.75663523     0.52669876     0.00000000
 H      0.75663672     0.52669759     0.00000000
*
%MaxCore  16000
%scf
   MaxIter 500 
   Convergence  VeryTight
end
%pal nprocs  1 
end
%method
  IntAcc 7.0
  NewNCore O  2  end
  NewNCore H  0  end
end
%basis 
   NewGTO   O
   S  6
       1            8588.50000000               0.00189515
       2            1297.23000000               0.01438590
       3             299.29600000               0.07073200
       4              87.37710000               0.24000101
       5              25.67890000               0.59479703
       6               3.74004000               0.28080201
   S  3
       1              42.11750000               0.11388901
       2               9.62837000               0.92081110
       3               2.85332000              -0.00327447
   P  3
       1              42.11750000               0.03651140
       2               9.62837000               0.23715298
       3               2.85332000               0.81970194
   S  1
       1               0.90566100               1.00000000
   P  1
       1               0.90566100               1.00000000
   S  1
       1               0.25561100               1.00000000
   P  1
       1               0.25561100               1.00000000
   S  1
       1               0.08450000               1.00000000
   P  1
       1               0.08450000               1.00000000
   D  1
       1               5.16800000               1.00000000
   D  1
       1               1.29200000               1.00000000
   D  1
       1               0.32300000               1.00000000
   F  1
       1               1.40000000               1.00000000
   end
   NewGTO   H
   S  3
       1              33.86500000               0.02549381
       2               5.09479000               0.19037311
       3               1.15879000               0.85216149
   S  1
       1               0.32584000               1.00000000
   S  1
       1               0.10274100               1.00000000
   S  1
       1               0.03600000               1.00000000
   P  1
       1               1.50000000               1.00000000
   P  1
       1               0.37500000               1.00000000
   end
end
! HF   
*xyz  0 1
 O     -0.00000009    -0.06637355     0.00000000
 H     -0.75663523     0.52669876     0.00000000
 H      0.75663672     0.52669759     0.00000000
*
%MaxCore  16000
%scf
   MaxIter 500 
   Convergence  VeryTight
end
%pal nprocs  1 
end
%method
  IntAcc 7.0
end
%basis 
   NewGTO   O
   S  7
       1           15330.00000000               0.00051981
       2            2299.00000000               0.00402026
       3             522.40000000               0.02071283
       4             147.30000000               0.08101055
       5              47.55000000               0.23596299
       6              16.76000000               0.44265345
       7               6.20700000               0.35706442
   S  6
       1             522.40000000              -0.00004421
       2             147.30000000              -0.00122591
       3              47.55000000              -0.01055177
       4              16.76000000              -0.06744526
       5               6.20700000              -0.17119861
       6               0.68820000               1.07329856
   S  1
       1               1.75200000               1.00000000
   S  1
       1               0.23840000               1.00000000
   S  1
       1               0.07376000               1.00000000
   P  3
       1              34.46000000               0.04116349
       2               7.74900000               0.25776284
       3               2.28000000               0.80241927
   P  1
       1               0.71560000               1.00000000
   P  1
       1               0.21400000               1.00000000
   P  1
       1               0.05974000               1.00000000
   D  1
       1               2.31400000               1.00000000
   D  1
       1               0.64500000               1.00000000
   F  1
       1               1.42800000               1.00000000
   end
   NewGTO   H
   S  3
       1              33.87000000               0.02549486
       2               5.09500000               0.19036277
       3               1.15900000               0.85216202
   S  1
       1               0.32580000               1.00000000
   S  1
       1               0.10270000               1.00000000
   P  1
       1               0.72700000               1.00000000
   end
end
! HF   
*xyz  0 1
 O     -0.00000009    -0.06637355     0.00000000
 H     -0.75663523     0.52669876     0.00000000
 H      0.75663672     0.52669759     0.00000000
*
%MaxCore  16000
%scf
   MaxIter 500 
   Convergence  VeryTight
end
%pal nprocs  1 
end
%method
  IntAcc 7.0
end
%basis 
   NewGTO   O
   S  8
       1           61420.00000000               0.00015552